QBPP_HJ*_30_025_20_3
30 78 2
6 31 1 37 17 4 8 35 40 50 10 26 42 32 41 27 17 15 22 19 41 32 24 36 45 50 14 33 8 16
    0    0    0    0    0   -4    0   20    0  -21    0    0    0    0    0    0    0    0    0    0    0    0    0    0    0    0   26    0    0  -16
    0    0    0    8  -47    0    0    0    0    0    0    0    0    0    0   26    0    0    0    0    0    0    0  -16    0   35   47   24    0   -5
    0    0    0    0   35    7    0  -28    0    0    0    0  -43    0    0  -40    0    0    0    0    0    0    0  -38  -34    0    0    0    0    0
    0    8    0    0  -34    0    0    6    0    0    0    0    0   41  -34    0    0    0  -29    0   45    0    0    0    0    0    0    0  -30    0
    0  -47   35  -34    0    0  -44  -45    0    0    0    0    0    0    0    0    0    0    0    0   48    0  -42    0    0    0    0    0    0    0
   -4    0    7    0    0    0  -41  -33    0    1    0    0    0    0    0    0   32  -44    0    0    0    0    9    0    0   -8    0    0    0    0
    0    0    0    0  -44  -41    0    0    0    0    0   31    0    0    0    0    0    0    0    0    0  -19    0    0   -7    0    0    0  -40    0
   20    0  -28    6  -45  -33    0    0    0    0  -40    0   26    0    0    0    4    0    0    0    0    0    0    0    0   34  -37    0   -7    0
    0    0    0    0    0    0    0    0    0   41    0    0   49    0    0    0    0    0    0    0    0   39   25    0    0    0    0    0   24   14
  -21    0    0    0    0    1    0    0   41    0    0    0   30    0    0    0  -37    0    0    0    0  -39  -31    0    0    0    0    0    0    0
    0    0    0    0    0    0    0  -40    0    0    0   37    0    0    0    0    0   11    0    0   41  -12  -15    0    0    0    0    0    0    0
    0    0    0    0    0    0   31    0    0    0   37    0    0    0    0    0    6    0    5    0   50    0    0    0    0    0   18    0    0    0
    0    0  -43    0    0    0    0   26   49   30    0    0    0    0    0   48    0    0    0    0    0    0    0    0  -24  -25    0    0    0    0
    0    0    0   41    0    0    0    0    0    0    0    0    0    0    0   34    0    0  -18    0   -5    0    0    8    0    0    0  -47    0    0
    0    0    0  -34    0    0    0    0    0    0    0    0    0    0    0   37  -49    0    0    0    0    0    0    0  -46    0    0    0    0    0
    0   26  -40    0    0    0    0    0    0    0    0    0   48   34   37    0    0    0    4    0    0  -13   37    0    0    0    0    0    0    0
    0    0    0    0    0   32    0    4    0  -37    0    6    0    0  -49    0    0    0    0   -9    0    0    0    0    0    0    0    0    0    0
    0    0    0    0    0  -44    0    0    0    0   11    0    0    0    0    0    0    0    0    0   30    0    0    0   21   35    0  -48    0   25
    0    0    0  -29    0    0    0    0    0    0    0    5    0  -18    0    4    0    0    0    0    0  -22   32  -22    0    0    0    0    0    0
    0    0    0    0    0    0    0    0    0    0    0    0    0    0    0    0   -9    0    0    0    0    0    0    0   26   49    0    0    0    0
    0    0    0   45   48    0    0    0    0    0   41   50    0   -5    0    0    0   30    0    0    0    0    0   33  -37    0    0    0    0    0
    0    0    0    0    0    0  -19    0   39  -39  -12    0    0    0    0  -13    0    0  -22    0    0    0  -15    0    0    0   11  -44   -7    0
    0    0    0    0  -42    9    0    0   25  -31  -15    0    0    0    0   37    0    0   32    0    0  -15    0   29    0    0    0    0    0    0
    0  -16  -38    0    0    0    0    0    0    0    0    0    0    8    0    0    0    0  -22    0   33    0   29    0    0    0    0    0    0   27
    0    0  -34    0    0    0   -7    0    0    0    0    0  -24    0  -46    0    0   21    0   26  -37    0    0    0    0    0    0    7    0    0
    0   35    0    0    0   -8    0   34    0    0    0    0  -25    0    0    0    0   35    0   49    0    0    0    0    0    0   11    0    0    0
   26   47    0    0    0    0    0  -37    0    0    0   18    0    0    0    0    0    0    0    0    0   11    0    0    0   11    0  -17    0    0
    0   24    0    0    0    0    0    0    0    0    0    0    0  -47    0    0    0  -48    0    0    0  -44    0    0    7    0  -17    0   13    0
    0    0    0  -30    0    0  -40   -7   24    0    0    0    0    0    0    0    0    0    0    0    0   -7    0    0    0    0    0   13    0    0
  -16   -5    0    0    0    0    0    0   14    0    0    0    0    0    0    0    0   25    0    0    0    0    0   27    0    0    0    0    0    0
